6510.0
[0, 1, 0, 0, 0, 0, 0, 1, 0, 1, 0, 0, 1, 1, 0, 0, 0, 0, 0, 1, 0, 0, 0, 0, 1, 0, 0, 1, 1, 0]
[12, 19, 19, 24, 13, 19, 9, 19, 27, 27, 24, 1, 13, 9, 12, 27, 19, 19, 7, 7, 7, 9, 19, 19, 19, 13, 27, 12, 27, 27, 27, 24, 13, 13, 19, 9, 7, 7, 19, 12, 27, 12, 28, 24, 24, 13, 9, 9, 9, 19, 19, 7, 9, 12, 12, 12, 19, 19, 13, 28, 24, 27, 1, 28, 27, 28, 1, 27, 28, 28]